200412
[0, 125, 126, 127, 128, 129, 25, 150, 151, 152, 153, 154, 50, 175, 176, 177, 178, 179, 75, 200, 201, 202, 203, 204, 100, 101, 102, 103, 104, 105, 106, 209, 107, 108, 109, 110, 111, 112, 214, 113, 114, 115, 116, 117, 118, 219, 119, 120, 121, 122, 123, 124, 224, 76, 77, 78, 79, 80, 81, 205, 206, 207, 208, 184, 82, 83, 84, 85, 86, 87, 210, 211, 212, 213, 189, 88, 89, 90, 91, 92, 93, 215, 216, 217, 218, 194, 94, 95, 96, 97, 98, 99, 220, 221, 222, 223, 199, 51, 52, 53, 54, 55, 56, 180, 181, 182, 183, 159, 57, 58, 59, 60, 61, 62, 185, 186, 187, 188, 164, 63, 64, 65, 66, 67, 68, 190, 191, 192, 193, 169, 69, 70, 71, 72, 73, 74, 195, 196, 197, 198, 174, 26, 27, 28, 29, 30, 31, 155, 156, 157, 158, 134, 32, 33, 34, 35, 36, 37, 160, 161, 162, 163, 139, 38, 39, 40, 41, 42, 43, 165, 166, 167, 168, 144, 44, 45, 46, 47, 48, 49, 170, 171, 172, 173, 149, 1, 2, 3, 4, 5, 6, 130, 131, 132, 133, 7, 8, 9, 10, 11, 12, 135, 136, 137, 138, 13, 14, 15, 16, 17, 18, 140, 141, 142, 143, 19, 20, 21, 22, 23, 24, 145, 146, 147, 148]
